\ Model Routes
\ LP format - for model browsing. Use MPS format to capture full model detail.
Maximize
  - 127.7762031097757 R{0,0} + 929.7595517452853 R{0,1}
   + 3325.992692841734 R{0,2} + 3400.003025871064 R{0,3}
   + 1482.408654921562 R{0,4} + 2352.423428820162 R{0,5}
   + 1941.683162446134 R{0,6} + 2863.418659038389 R{0,7}
   + 1221.610280588779 R{0,8} + 956.5908999578669 R{0,9}
   + 1454.001341116616 R{0,10} + 1201.147979396806 R{0,11}
   + 650.2881426895267 R{0,12} + 358.0840167121084 R{0,13}
   + 451.0085132229461 R{0,14} + 3210.84817081815 R{0,15}
   + 2521.108766420569 R{0,16} + 192.813780540825 R{0,17}
   + 2377.759313015313 R{0,18} + 352.1799010877065 R{0,19}
   + 3424.104582620698 R{0,20} + 692.4177331382881 R{0,21}
   + 2393.300942670194 R{0,22} + 1560.652374744591 R{0,23}
   + 2291.79543428374 R{0,24} + 839.3350336029067 R{0,25}
   + 3127.031679934704 R{0,26} + 3424.643021121964 R{0,27}
   + 2895.1848330743 R{0,28} + 2937.870830174581 R{0,29}
   + 3202.834440988736 R{0,30} + 3104.731348219952 R{0,31}
   + 2677.46952076401 R{0,32} + 2227.812160204698 R{0,33}
   + 1144.991045539686 R{0,34} + 2920.531551384372 R{0,35}
   - 200.856038906509 R{1,0} + 590.5308991772945 R{1,1}
   + 986.8799869836498 R{1,2} + 535.1830567802195 R{1,3}
   + 244.8812990358504 R{1,4} + 932.9968774037684 R{1,5}
   + 130.5087230400505 R{1,6} + 553.7701048198894 R{1,7}
   + 956.0590488255746 R{1,8} + 174.3683976140239 R{1,9}
   + 610.1105416547426 R{1,10} + 623.6866327970949 R{1,11}
   + 606.0126947387997 R{1,12} + 809.0929844982538 R{1,13}
   + 409.7887366005831 R{1,14} + 1128.085484499243 R{1,15}
   + 1211.981669257676 R{1,16} + 1505.150586562821 R{1,17}
   + 1048.647349442731 R{1,18} + 845.7073853182728 R{1,19}
   + 1313.244714745579 R{1,20} + 1140.88332418562 R{1,21}
   + 1072.244092809948 R{1,22} + 717.4160233847726 R{1,23}
   + 394.1789622872902 R{1,24} + 942.2179407625808 R{1,25}
   - 133.5200660505167 R{2,0} + 2048.062255913486 R{2,1}
   + 2775.701288094548 R{2,2} + 3147.854056221029 R{2,3}
   + 2388.121471397935 R{2,4} + 2693.182482393866 R{2,5}
   + 2363.827223980195 R{2,6} + 3077.94653060857 R{2,7}
   + 2069.84430123022 R{2,8} + 1824.598815647842 R{2,9}
   + 1604.023971371243 R{2,10} + 2291.135819354202 R{2,11}
   + 2319.491103455049 R{2,12} + 2798.117708401163 R{2,13}
   + 2492.571102520425 R{2,14} + 2410.763493349637 R{2,15}
   + 2392.384588045928 R{2,16} + 2290.966886022514 R{2,17}
   + 2183.592482344948 R{2,18} + 1704.438542578463 R{2,19}
   + 1459.587761371169 R{2,20} + 1397.487777053917 R{2,21}
   + 2814.961185598233 R{2,22} + 1972.23035912184 R{2,23}
   + 2649.417769388826 R{2,24} + 1279.308289903985 R{2,25}
   + 2221.629275374044 R{2,26} + 1761.092757206616 R{2,27}
   + 1640.053920549379 R{2,28} + 3031.629458425773 R{2,29}
   + 2544.079200112827 R{2,30} + 2513.541238650479 R{2,31}
   + 1876.250868192116 R{2,32} + 2384.245153347929 R{2,33}
   + 2453.215622828001 R{2,34} + 2707.395970438037 R{2,35}
   + 1781.964782441309 R{2,36} + 1560.660561658372 R{2,37}
   + 2564.510003499527 R{2,38} + 2960.16618277806 R{2,39}
   + 1625.810636525465 R{2,40} + 3405.899899315401 R{2,41}
   + 1568.005293996262 R{3,0} - 192.385172168201 R{3,1}
   + 2126.545015546037 R{3,2} + 2133.392620207884 R{3,3}
   + 2392.786689923813 R{3,4} + 2514.899227605696 R{3,5}
   + 2151.73119960999 R{3,6} + 3171.783417851944 R{3,7}
   + 307.7088189423202 R{3,8} + 2333.223562176007 R{3,9}
   + 1194.504758298316 R{3,10} + 2276.105937647024 R{3,11}
   + 947.9300970336317 R{3,12} + 1154.968920613913 R{3,13}
   + 1818.737485680294 R{3,14} + 3077.339403448153 R{3,15}
   + 1072.887331475045 R{3,16} + 1491.607298164005 R{3,17}
   + 1113.846170958047 R{3,18} + 1184.238782154231 R{3,19}
   + 1208.97445911817 R{3,20} + 1599.376082928878 R{3,21}
   + 2127.787545817635 R{3,22} + 2348.590251675048 R{3,23}
   + 1561.093170347148 R{3,24} + 1748.380591978558 R{3,25}
   + 1417.767729642622 R{3,26} + 2076.443927741087 R{3,27}
   + 1245.7796067931 R{3,28} + 1658.175915754456 R{3,29}
   + 2103.081696529473 R{3,30} + 1343.346704486357 R{3,31}
   + 1455.957047451345 R{3,32} + 1766.88777637294 R{3,33}
   + 1716.441703663287 R{3,34} + 2045.425414016238 R{3,35}
   + 1335.235894227739 R{3,36} + 944.2153422376468 R{4,0}
   - 110.311124685748 R{4,1} + 249.2850660077673 R{4,2}
   + 3530.827638621746 R{4,3} + 3525.307596754079 R{4,4}
   + 736.9986761039082 R{4,5} + 2416.228277886205 R{4,6}
   + 2256.474873129592 R{4,7} + 2390.577694091498 R{4,8}
   + 2817.705421199956 R{4,9} + 2992.683715950684 R{4,10}
   + 2784.461105846643 R{4,11} + 2564.633522310581 R{4,12}
   + 2460.442169181657 R{4,13} + 2070.495217032496 R{4,14}
   + 2610.587190903569 R{4,15} + 176.2808201798327 R{4,16}
   + 589.2652171172049 R{4,17} + 2899.732148337896 R{4,18}
   + 3287.711671635326 R{4,19} + 2041.28349790073 R{4,20}
   + 3158.777729849204 R{4,21} + 2963.273206780825 R{4,22}
   + 2602.425662889046 R{4,23} + 218.0096951776325 R{4,24}
   + 1728.897408233345 R{4,25} + 2333.061274002678 R{4,26}
   + 2014.230149785813 R{4,27} + 2989.27177611303 R{4,28}
   + 1632.170194296137 R{4,29} + 314.9426250529679 R{4,30}
   + 2263.193756265048 R{4,31} + 2666.366939289088 R{4,32}
   + 2818.798633503262 R{4,33} + 2977.541265708356 R{4,34}
   + 2373.975588412055 R{4,35} + 2383.543968073132 R{4,36}
   - 185.9792297999622 R{5,0} - 64.82854774354945 R{5,1}
   + 581.1058180586906 R{5,2} + 446.9736204208887 R{5,3}
   + 1952.874407539585 R{5,4} + 891.4348422941039 R{5,5}
   + 883.3457882477546 R{5,6} + 57.79799346421458 R{5,7}
   + 207.9080121829675 R{5,8} + 390.8994941823098 R{5,9}
   + 621.1051568452284 R{5,10} + 1123.08714759314 R{5,11}
   + 485.7409501605023 R{5,12} + 918.1460622294389 R{5,13}
   + 2086.655648976292 R{5,14} + 791.6255630576936 R{5,15}
   + 820.2206741614984 R{5,16} + 1339.721895611305 R{5,17}
   + 1350.762067279708 R{5,18} + 1663.166561955574 R{5,19}
   + 648.0179348327339 R{5,20} + 1905.151319448344 R{5,21}
   + 1556.96287102078 R{5,22} + 2011.350335549477 R{5,23}
   + 2242.678287307302 R{5,24} + 2288.733508842433 R{5,25}
   + 1734.957936735198 R{5,26} + 1546.460874264592 R{6,0}
   + 1939.461777148877 R{6,1} - 151.6582656969574 R{6,2}
   + 111.3856599336223 R{6,3} + 2356.93814565439 R{6,4}
   + 3569.600947257917 R{6,5} + 1824.042726641155 R{6,6}
   + 967.3197219970648 R{6,7} + 2373.311873866426 R{6,8}
   + 908.2657146471138 R{6,9} + 531.8762292773534 R{6,10}
   + 344.1321472950343 R{6,11} + 1737.038315641858 R{6,12}
   + 73.77143220746234 R{6,13} + 717.6756400528868 R{6,14}
   + 2709.789403801161 R{6,15} + 643.0347182085574 R{6,16}
   + 3254.147808590876 R{6,17} + 669.4955850811609 R{6,18}
   + 1041.944200247633 R{6,19} + 3050.914451557727 R{6,20}
   + 1526.958581982249 R{6,21} + 2084.739686424217 R{6,22}
   + 2926.167204036268 R{6,23} + 1742.227986718015 R{6,24}
   + 2233.674144838626 R{6,25} + 2731.633084801207 R{6,26}
Subject To
 R1_0: R{0,0} + R{0,1} + R{0,2} + R{0,3} + R{0,4} + R{0,5} + R{0,6}
   + R{0,7} + R{0,8} + R{0,9} + R{0,10} + R{0,11} + R{0,12} + R{0,13}
   + R{0,14} + R{0,15} + R{0,16} + R{0,17} + R{0,18} + R{0,19} + R{0,20}
   + R{0,21} + R{0,22} + R{0,23} + R{0,24} + R{0,25} + R{0,26} + R{0,27}
   + R{0,28} + R{0,29} + R{0,30} + R{0,31} + R{0,32} + R{0,33} + R{0,34}
   + R{0,35} <= 1
 R1_1: R{1,0} + R{1,1} + R{1,2} + R{1,3} + R{1,4} + R{1,5} + R{1,6}
   + R{1,7} + R{1,8} + R{1,9} + R{1,10} + R{1,11} + R{1,12} + R{1,13}
   + R{1,14} + R{1,15} + R{1,16} + R{1,17} + R{1,18} + R{1,19} + R{1,20}
   + R{1,21} + R{1,22} + R{1,23} + R{1,24} + R{1,25} <= 1
 R1_2: R{2,0} + R{2,1} + R{2,2} + R{2,3} + R{2,4} + R{2,5} + R{2,6}
   + R{2,7} + R{2,8} + R{2,9} + R{2,10} + R{2,11} + R{2,12} + R{2,13}
   + R{2,14} + R{2,15} + R{2,16} + R{2,17} + R{2,18} + R{2,19} + R{2,20}
   + R{2,21} + R{2,22} + R{2,23} + R{2,24} + R{2,25} + R{2,26} + R{2,27}
   + R{2,28} + R{2,29} + R{2,30} + R{2,31} + R{2,32} + R{2,33} + R{2,34}
   + R{2,35} + R{2,36} + R{2,37} + R{2,38} + R{2,39} + R{2,40} + R{2,41}
   <= 1
 R1_3: R{3,0} + R{3,1} + R{3,2} + R{3,3} + R{3,4} + R{3,5} + R{3,6}
   + R{3,7} + R{3,8} + R{3,9} + R{3,10} + R{3,11} + R{3,12} + R{3,13}
   + R{3,14} + R{3,15} + R{3,16} + R{3,17} + R{3,18} + R{3,19} + R{3,20}
   + R{3,21} + R{3,22} + R{3,23} + R{3,24} + R{3,25} + R{3,26} + R{3,27}
   + R{3,28} + R{3,29} + R{3,30} + R{3,31} + R{3,32} + R{3,33} + R{3,34}
   + R{3,35} + R{3,36} <= 1
 R1_4: R{4,0} + R{4,1} + R{4,2} + R{4,3} + R{4,4} + R{4,5} + R{4,6}
   + R{4,7} + R{4,8} + R{4,9} + R{4,10} + R{4,11} + R{4,12} + R{4,13}
   + R{4,14} + R{4,15} + R{4,16} + R{4,17} + R{4,18} + R{4,19} + R{4,20}
   + R{4,21} + R{4,22} + R{4,23} + R{4,24} + R{4,25} + R{4,26} + R{4,27}
   + R{4,28} + R{4,29} + R{4,30} + R{4,31} + R{4,32} + R{4,33} + R{4,34}
   + R{4,35} + R{4,36} <= 1
 R1_5: R{5,0} + R{5,1} + R{5,2} + R{5,3} + R{5,4} + R{5,5} + R{5,6}
   + R{5,7} + R{5,8} + R{5,9} + R{5,10} + R{5,11} + R{5,12} + R{5,13}
   + R{5,14} + R{5,15} + R{5,16} + R{5,17} + R{5,18} + R{5,19} + R{5,20}
   + R{5,21} + R{5,22} + R{5,23} + R{5,24} + R{5,25} + R{5,26} <= 1
 R1_6: R{6,0} + R{6,1} + R{6,2} + R{6,3} + R{6,4} + R{6,5} + R{6,6}
   + R{6,7} + R{6,8} + R{6,9} + R{6,10} + R{6,11} + R{6,12} + R{6,13}
   + R{6,14} + R{6,15} + R{6,16} + R{6,17} + R{6,18} + R{6,19} + R{6,20}
   + R{6,21} + R{6,22} + R{6,23} + R{6,24} + R{6,25} + R{6,26} <= 1
 R2_0: 5 R{0,2} + 5 R{0,3} + 5 R{0,5} + 5 R{0,7} + 5 R{0,10} + 5 R{0,15}
   + 5 R{0,16} + 5 R{0,18} + 5 R{0,20} + 5 R{0,23} + 5 R{0,24} + 5 R{0,26}
   + 5 R{0,27} + 5 R{0,28} + 5 R{0,29} + 5 R{0,30} + 5 R{0,31} + 5 R{0,32}
   + 5 R{0,33} + 5 R{0,35} + 5 R{2,3} + 5 R{2,5} + 5 R{2,9} + 5 R{2,10}
   + 5 R{2,19} + 5 R{2,39} + 5 R{2,41} + 5 R{3,0} + 5 R{3,2} + 5 R{3,3}
   + 5 R{3,4} + 5 R{3,7} + 5 R{3,10} + 5 R{3,11} + 5 R{3,14} + 5 R{3,15}
   + 5 R{3,17} + 5 R{3,23} + 5 R{3,24} + 5 R{3,35} + 5 R{4,3} + 5 R{4,4}
   + 5 R{4,8} + 5 R{4,13} + 5 R{4,15} + 5 R{4,22} + 5 R{4,25} + 5 R{4,26}
   + 5 R{4,33} + 5 R{4,35} + 5 R{6,5} + 5 R{6,12} + 5 R{6,15} + 5 R{6,20}
   + 5 R{6,22} + 5 R{6,23} + 5 R{6,25} + 5 R{6,26} <= 5
 R2_1: 9 R{0,6} + 9 R{0,7} + 9 R{0,20} + 9 R{0,21} + 9 R{0,22} + 9 R{0,27}
   + 9 R{1,1} + 9 R{1,2} + 9 R{1,5} + 9 R{1,15} + 9 R{1,16} + 9 R{1,17}
   + 9 R{2,6} + 9 R{2,7} + 9 R{2,12} + 9 R{2,14} + 9 R{2,16} + 9 R{2,21}
   + 9 R{2,29} + 9 R{2,31} + 9 R{2,34} + 9 R{3,7} + 9 R{3,15} + 9 R{3,22}
   + 9 R{3,30} + 9 R{3,33} + 9 R{4,17} + 7 R{4,18} + 7 R{4,19} + 9 R{4,26}
   + 9 R{5,2} + 9 R{5,4} + 9 R{5,5} + 9 R{5,6} + 9 R{5,11} + 9 R{5,14}
   + 9 R{5,15} + 9 R{5,16} + 9 R{5,17} + 9 R{5,18} + 9 R{5,19} + 9 R{5,21}
   + 9 R{5,22} + 9 R{5,23} + 9 R{5,24} + 9 R{5,25} + 9 R{5,26} + 9 R{6,1}
   + 9 R{6,4} + 9 R{6,5} + 9 R{6,8} + 9 R{6,17} + 9 R{6,19} <= 9
 R2_2: <= 0
 R2_3: 5 R{0,4} + 5 R{0,6} + 5 R{0,9} + 5 R{0,10} + 5 R{0,12} + 5 R{0,16}
   + 5 R{0,21} + 5 R{0,28} + R{0,31} + 5 R{0,32} + 5 R{0,34} + 5 R{1,1}
   + 5 R{1,4} + 5 R{1,8} + 5 R{1,9} + 5 R{1,10} + 5 R{1,11} + 5 R{1,12}
   + 5 R{1,14} + 5 R{1,15} + 5 R{1,16} + 5 R{1,17} + 5 R{1,18} + 5 R{1,20}
   + 5 R{1,21} + 5 R{1,22} + 5 R{1,23} + 5 R{1,24} + 5 R{1,25} + 5 R{2,10}
   + 5 R{2,15} + 5 R{2,18} + 5 R{2,40} + 5 R{3,34} + 5 R{3,36} + 5 R{4,4}
   + 5 R{4,6} + 5 R{4,9} + 5 R{4,10} + 5 R{4,11} + 5 R{4,12} + 5 R{4,13}
   + 5 R{4,14} + 5 R{4,16} + 5 R{4,18} + 5 R{4,19} + 5 R{4,20} + 5 R{4,27}
   + 5 R{4,28} + 5 R{4,32} + 5 R{4,36} + 5 R{5,4} + 5 R{5,8} + 5 R{5,13}
   + 5 R{5,21} + 5 R{5,23} + 5 R{5,24} + 5 R{5,25} + 5 R{6,12} <= 5
 R2_4: 13 R{0,7} + 13 R{0,9} + 13 R{0,12} + 13 R{0,13} + 13 R{0,25}
   + 13 R{0,34} + 13 R{1,1} + 13 R{1,2} + 13 R{1,3} + 13 R{1,16}
   + 13 R{1,17} + 13 R{3,30} + 13 R{3,33} + 13 R{4,0} + 13 R{4,12}
   + 13 R{4,17} + 13 R{4,20} + 13 R{4,24} + 13 R{4,29} + 13 R{4,30} <= 13
 R2_5: 5 R{0,28} + 5 R{1,11} + 5 R{1,18} + 5 R{1,19} + 5 R{1,20}
   + 5 R{1,21} + 5 R{1,22} + 5 R{1,25} + 5 R{2,1} + 5 R{2,2} + 5 R{2,3}
   + 5 R{2,5} + 5 R{2,6} + 5 R{2,9} + 5 R{2,12} + 5 R{2,13} + 5 R{2,14}
   + 5 R{2,18} + 5 R{2,19} + 5 R{2,20} + 5 R{2,21} + 5 R{2,22} + 5 R{2,23}
   + 5 R{2,26} + 5 R{2,28} + 5 R{2,29} + 5 R{2,30} + 5 R{2,31} + 5 R{2,32}
   + 5 R{2,34} + 5 R{2,36} + 5 R{2,38} + 5 R{2,40} + 5 R{3,30} + 5 R{3,33}
   + 5 R{4,30} <= 5
 R2_6: <= 0
 R2_7: 8 R{0,1} + 8 R{0,2} + 8 R{0,3} + 8 R{0,4} + 8 R{0,6} + 8 R{0,7}
   + 8 R{0,8} + 8 R{0,9} + 8 R{0,11} + 8 R{0,12} + 8 R{0,13} + 8 R{0,15}
   + 8 R{0,20} + 8 R{0,22} + 8 R{0,25} + 8 R{0,26} + 4 R{0,27} + 8 R{0,28}
   + 8 R{0,29} + 8 R{0,30} + 8 R{0,31} + 8 R{0,32} + 8 R{0,34} + 8 R{0,35}
   + 8 R{1,10} + 8 R{1,11} + 8 R{1,18} + 8 R{1,21} + 8 R{1,22} + 8 R{2,25}
   + 8 R{3,14} + 8 R{3,24} + 8 R{4,0} + 8 R{4,3} + 8 R{4,4} + 8 R{4,5}
   + 8 R{4,9} + 8 R{4,10} + 8 R{4,11} + 8 R{4,12} + 8 R{4,19} + 8 R{4,20}
   + 8 R{4,21} + 8 R{4,22} + 8 R{4,23} + 8 R{4,28} + 8 R{4,29} + 8 R{4,31}
   + 8 R{4,34} + 8 R{5,10} + 8 R{5,12} + 8 R{5,20} + 8 R{5,24} + 4 R{6,4}
   + 4 R{6,5} + 8 R{6,6} + 4 R{6,15} + 4 R{6,17} + 4 R{6,20} + 8 R{6,21}
   + 8 R{6,22} + 4 R{6,23} + 8 R{6,24} + 8 R{6,25} + 4 R{6,26} <= 8
 R2_8: 9 R{0,2} + 9 R{0,3} + 9 R{0,5} + 9 R{0,7} + 9 R{0,15} + 9 R{0,20}
   + 9 R{0,22} + 9 R{0,23} + 9 R{0,26} + 9 R{0,28} + 9 R{0,30} + 9 R{0,32}
   + 9 R{2,1} + 9 R{2,2} + 9 R{2,3} + 9 R{2,4} + 9 R{2,5} + 9 R{2,7}
   + 9 R{2,8} + 9 R{2,13} + 9 R{2,14} + 9 R{2,20} + 9 R{2,22} + 9 R{2,23}
   + 9 R{2,24} + 9 R{2,29} + 9 R{2,33} + 9 R{2,34} + 9 R{2,41} + 9 R{3,5}
   + 9 R{3,9} + 9 R{3,35} + 9 R{4,21} + 9 R{4,27} + 9 R{6,5} + 9 R{6,6}
   + 9 R{6,20} + 9 R{6,24} + 9 R{6,25} + 9 R{6,26} <= 9
 R2_9: 12 R{0,10} + 12 R{0,18} + 12 R{2,4} + 12 R{2,10} + 12 R{2,22}
   + 12 R{2,30} + 12 R{2,32} + 12 R{2,34} + 12 R{2,35} + 12 R{3,2}
   + 12 R{3,3} + 12 R{3,4} + 12 R{3,5} + 12 R{3,6} + 12 R{3,7} + 12 R{3,9}
   + 12 R{3,10} + 12 R{3,11} + 12 R{3,14} + R{3,15} + 12 R{3,17}
   + 12 R{3,20} + 12 R{3,22} + 12 R{3,24} + 12 R{3,27} + 12 R{3,30}
   + 12 R{3,33} + 12 R{3,35} + 12 R{4,7} + 9 R{4,15} + 12 R{4,20}
   + 12 R{4,23} + 12 R{4,25} + 12 R{4,27} + 12 R{4,28} + 12 R{4,31}
   + 12 R{4,32} + 12 R{4,36} + 12 R{6,12} + 12 R{6,15} <= 12
 R2_10: 5 R{0,16} + 5 R{0,18} + 5 R{0,24} + 5 R{0,28} + 5 R{0,31}
   + 5 R{2,13} + 5 R{2,18} + 5 R{2,26} + 5 R{2,36} + 5 R{2,37} + 5 R{2,38}
   + 5 R{2,39} + 5 R{2,40} + 5 R{2,41} + 5 R{3,6} + 5 R{3,13} + 5 R{3,16}
   + 5 R{3,20} + 5 R{3,21} + 5 R{3,22} + 5 R{3,26} + 5 R{3,27} + 5 R{3,29}
   + 5 R{3,30} + 5 R{3,31} + 5 R{3,33} + 5 R{3,36} + 5 R{4,12} + 5 R{4,23}
   + 5 R{4,31} + 5 R{4,34} + 5 R{6,3} + 5 R{6,4} + 5 R{6,5} + 5 R{6,6}
   + 5 R{6,14} + 5 R{6,15} + 5 R{6,18} + 5 R{6,20} + 5 R{6,21} + 5 R{6,24}
   + 5 R{6,26} <= 5
 R2_11: 14 R{0,2} + 14 R{0,3} + 14 R{0,7} + 14 R{0,8} + 14 R{0,11}
   + 14 R{0,15} + 9 R{0,20} + 14 R{0,22} + 9 R{0,23} + 6 R{0,26}
   + 9 R{0,27} + 6 R{0,28} + 9 R{0,30} + 9 R{0,31} + 9 R{0,32} + 14 R{1,6}
   + 14 R{2,4} + 14 R{2,11} + 14 R{2,12} + 14 R{2,13} + 14 R{2,15}
   + 9 R{2,18} + 14 R{2,22} + 14 R{2,30} + 14 R{2,32} + 14 R{2,37}
   + 14 R{2,40} + 14 R{3,2} + 14 R{3,3} + 14 R{3,4} + 14 R{3,5} + 14 R{3,7}
   + 14 R{3,9} + 14 R{3,13} + 14 R{3,14} + 14 R{3,15} + 14 R{3,18}
   + 14 R{3,19} + 10 R{3,20} + 14 R{3,22} + 14 R{3,24} + 14 R{3,25}
   + 14 R{3,27} + 14 R{3,28} + 14 R{3,31} + 14 R{3,32} + 14 R{3,33}
   + 14 R{3,34} + 14 R{3,35} + 14 R{4,3} + 14 R{4,4} + 14 R{4,6}
   + 14 R{4,7} + 14 R{4,8} + 14 R{4,11} + 14 R{4,13} + 9 R{4,22}
   + 14 R{4,27} + 14 R{4,33} + 9 R{4,35} <= 14
 R2_12: 10 R{0,2} + 10 R{0,3} + 13 R{0,6} + 13 R{0,8} + 13 R{0,15}
   + 10 R{0,26} + 10 R{0,28} + 10 R{0,29} + 10 R{0,30} + 10 R{0,31}
   + 10 R{0,35} + 13 R{2,1} + 13 R{2,2} + 13 R{2,3} + 13 R{2,4} + 13 R{2,6}
   + 13 R{2,8} + 13 R{2,9} + 13 R{2,13} + 13 R{2,14} + 13 R{2,18}
   + 9 R{2,20} + 13 R{2,22} + 13 R{2,25} + 13 R{2,26} + 13 R{2,28}
   + 11 R{2,33} + 13 R{2,35} + 13 R{2,36} + 11 R{2,41} + 13 R{3,0}
   + 13 R{3,5} + 13 R{3,9} + 13 R{3,14} + 11 R{3,24} + 13 R{3,26}
   + 13 R{3,29} + 13 R{3,31} + 13 R{3,34} + 13 R{3,36} + 13 R{4,24}
   + 11 R{5,4} + 6 R{5,14} + 11 R{5,23} + 13 R{5,24} + 6 R{5,25}
   + 10 R{6,4} + 10 R{6,5} + 13 R{6,6} + 13 R{6,10} + 10 R{6,15}
   + 10 R{6,17} + 10 R{6,20} + 13 R{6,22} + 10 R{6,26} <= 13
 R2_13: 8 R{0,22} + 8 R{2,1} + 8 R{2,2} + 8 R{2,3} + 8 R{2,7} + 8 R{2,19}
   + 8 R{2,20} + 8 R{2,23} + 8 R{2,24} + 8 R{2,25} + 8 R{2,27} + 8 R{2,36}
   + 8 R{2,39} + 8 R{3,13} + 8 R{3,23} + 8 R{3,25} + 8 R{4,34} + 8 R{6,22}
   + 8 R{6,23} + 8 R{6,25} <= 8
 R2_14: <= 0
 R2_15: 12 R{0,27} + 12 R{0,29} + 12 R{0,31} + 12 R{0,33} + 12 R{0,35}
   + 12 R{2,33} + 12 R{2,38} + 12 R{2,41} + 12 R{3,23} + 12 R{3,24}
   + 12 R{3,25} + R{4,3} + R{4,4} + 12 R{4,12} + 12 R{4,18} + 12 R{4,19}
   + 12 R{4,20} + 12 R{4,23} + 12 R{4,28} + 12 R{4,31} + 12 R{4,32}
   + 12 R{4,34} + 12 R{4,36} + 12 R{6,3} + 12 R{6,4} + 12 R{6,5}
   + 12 R{6,6} + 12 R{6,14} + 12 R{6,15} + 12 R{6,17} + 12 R{6,20}
   + 12 R{6,21} + 12 R{6,22} + 12 R{6,24} + 12 R{6,25} + 12 R{6,26} <= 12
 R2_16: 5 R{0,11} + 5 R{2,5} + 5 R{2,11} + 5 R{2,14} + 5 R{2,15}
   + 5 R{2,16} + 5 R{2,17} + 5 R{2,18} + 5 R{2,19} + 5 R{2,23} + 5 R{2,24}
   + 5 R{2,27} + 5 R{2,29} + 5 R{2,31} + 5 R{2,32} + 5 R{2,34} + 5 R{2,35}
   + 5 R{2,36} + 5 R{2,37} + 5 R{2,38} + 5 R{2,39} + 5 R{2,40} + 5 R{3,2}
   + 5 R{3,3} + 5 R{3,4} + 5 R{3,6} + 5 R{3,7} + 5 R{3,10} + 5 R{3,14}
   + 5 R{3,15} + 5 R{3,17} + 5 R{3,18} + 5 R{3,19} + 5 R{3,20} + 5 R{3,21}
   + 5 R{3,22} + 5 R{3,23} + 5 R{3,27} + 5 R{3,30} + 5 R{4,7} + 5 R{4,9}
   + 5 R{4,10} + 5 R{4,13} + 5 R{4,15} + 5 R{4,18} + 5 R{4,19} + 5 R{4,21}
   + 5 R{4,28} + 5 R{4,32} + 5 R{4,34} + 5 R{4,36} <= 5
 R2_17: 11 R{0,3} + 11 R{0,5} + 11 R{0,20} + 11 R{0,22} + 11 R{0,26}
   + 11 R{0,27} + 11 R{0,29} + 11 R{0,31} + 11 R{0,32} + 11 R{0,33}
   + 11 R{0,35} + 11 R{1,18} + 11 R{1,20} + 11 R{1,21} + 11 R{1,22}
   + 11 R{1,23} + 11 R{1,25} + 10 R{2,6} + 10 R{2,7} + 10 R{2,8}
   + 10 R{2,12} + 10 R{2,14} + 11 R{2,16} + 11 R{2,21} + 11 R{2,24}
   + 11 R{2,27} + 10 R{2,29} + 10 R{2,31} + 11 R{2,33} + 10 R{2,34}
   + 10 R{2,36} + 10 R{2,39} + 11 R{2,41} + 11 R{3,2} + 11 R{3,3}
   + 3 R{3,5} + 3 R{3,6} + 11 R{3,7} + 3 R{3,9} + 11 R{3,10} + 3 R{3,13}
   + 11 R{3,14} + 11 R{3,15} + 11 R{3,17} + 3 R{3,21} + 3 R{3,22}
   + 3 R{3,23} + 11 R{3,24} + 3 R{3,25} + 11 R{3,26} + 3 R{3,30}
   + 11 R{5,3} + 11 R{5,4} + 11 R{5,6} + 11 R{5,10} + 11 R{5,13}
   + 11 R{5,14} + 11 R{5,16} + 11 R{5,18} + 11 R{5,19} + 11 R{5,20}
   + 11 R{5,22} + 11 R{5,23} + 11 R{5,24} + 11 R{5,26} + 11 R{6,10}
   + 11 R{6,16} + 11 R{6,18} + 11 R{6,19} + 10 R{6,21} + 11 R{6,22}
   + 11 R{6,23} + 11 R{6,25} <= 11
 R2_18: 6 R{0,9} + 6 R{0,12} + 6 R{0,25} + 6 R{0,27} + 6 R{0,34} + 6 R{1,7}
   + 6 R{1,13} + 6 R{1,16} + 6 R{1,17} + 6 R{1,18} + 6 R{1,19} + 6 R{1,20}
   + 6 R{1,21} + 6 R{1,22} + 6 R{1,23} + 6 R{1,25} + 6 R{2,1} + 6 R{2,2}
   + 6 R{2,3} + 6 R{2,4} + 6 R{2,6} + 6 R{2,7} + 6 R{2,8} + 6 R{2,9}
   + 6 R{2,10} + 6 R{2,11} + 6 R{2,12} + 6 R{2,14} + 6 R{2,15} + 6 R{2,16}
   + 6 R{2,17} + 6 R{2,21} + 6 R{2,24} + 6 R{2,27} + 6 R{2,29} + 6 R{2,31}
   + 6 R{2,33} + 6 R{2,34} + 6 R{2,36} + 6 R{2,37} + 6 R{2,39} + 6 R{2,41}
   + 6 R{3,5} + 6 R{3,7} + 6 R{3,10} + 6 R{3,12} + 6 R{3,15} + 6 R{3,16}
   + 6 R{3,26} + 6 R{3,31} + 6 R{4,6} + 6 R{5,4} + 6 R{5,13} + 6 R{5,14}
   + 6 R{5,21} + 6 R{5,23} + 6 R{5,24} + 6 R{5,25} + 6 R{6,4} + 6 R{6,5}
   + 6 R{6,6} + 6 R{6,8} + 6 R{6,11} + 6 R{6,12} + 6 R{6,15} + 6 R{6,17}
   + 6 R{6,20} + 6 R{6,22} + 6 R{6,23} + 6 R{6,24} + 6 R{6,25} + 6 R{6,26}
   <= 6
 R2_19: 8 R{0,1} + 8 R{0,2} + 8 R{0,3} + 8 R{0,4} + 8 R{0,5} + 8 R{0,6}
   + 8 R{0,20} + 8 R{0,22} + 8 R{0,26} + 8 R{0,28} + 8 R{0,30} + 8 R{0,31}
   + 8 R{0,33} + 8 R{0,35} + 8 R{1,2} + 8 R{1,3} + 8 R{1,8} + 8 R{1,12}
   + 8 R{1,19} + 8 R{2,29} + 8 R{2,41} + 8 R{3,0} + 8 R{3,5} + 8 R{3,6}
   + 8 R{3,7} + 8 R{3,11} + 8 R{3,15} + 8 R{3,26} + 8 R{3,27} + 8 R{3,29}
   + 8 R{3,34} + 8 R{3,36} + 8 R{4,18} + 8 R{4,19} + 8 R{5,4} + 8 R{5,14}
   + 8 R{5,19} + 8 R{5,21} + 8 R{5,23} + 8 R{5,24} + 8 R{5,25} + 8 R{6,17}
   <= 8
 R2_20: 7 R{0,2} + 7 R{0,3} + 10 R{0,15} + 10 R{0,27} + 10 R{0,29}
   + 7 R{0,35} + 10 R{2,2} + 10 R{2,3} + 6 R{2,6} + 10 R{2,9} + 10 R{2,13}
   + 10 R{2,18} + 10 R{2,22} + 10 R{2,23} + 10 R{2,26} + 10 R{2,28}
   + 10 R{2,30} + 10 R{2,35} + 10 R{2,38} + 10 R{3,2} + 10 R{3,3}
   + 10 R{3,4} + 7 R{3,7} + 10 R{3,9} + 10 R{4,3} + 10 R{4,4} + 10 R{4,6}
   + 10 R{4,7} + 10 R{4,9} + 10 R{4,10} + 10 R{4,11} + 10 R{4,14}
   + 10 R{4,15} + 10 R{4,21} + 10 R{4,22} + 10 R{4,23} + 10 R{4,26}
   + 10 R{4,28} + 10 R{4,29} + 10 R{4,32} + 10 R{4,33} + 10 R{4,34}
   + 10 R{4,35} + 10 R{6,0} + 10 R{6,1} + 10 R{6,4} + 10 R{6,5} + 10 R{6,8}
   + 10 R{6,15} + 10 R{6,20} + 10 R{6,23} <= 10
 R2_21: 8 R{0,1} + 8 R{0,2} + 8 R{0,6} + 8 R{0,7} + 8 R{0,8} + 8 R{0,10}
   + 8 R{0,11} + 8 R{0,14} + 8 R{0,15} + 8 R{0,16} + 8 R{0,17} + 8 R{0,18}
   + 8 R{0,19} + 8 R{0,23} + 8 R{0,24} + 8 R{0,26} + 8 R{0,28} + 8 R{0,32}
   + 8 R{0,35} + 8 R{1,20} + 8 R{2,9} + 8 R{2,18} + 3 R{3,11} + 8 R{3,14}
   + 8 R{3,17} + 8 R{3,18} + 8 R{3,19} + 8 R{3,32} + 8 R{5,9} + 8 R{5,10}
   + 8 R{5,12} + 8 R{5,13} + 8 R{5,15} + 8 R{5,17} + 8 R{5,18} + 8 R{5,20}
   + 8 R{5,21} + 8 R{5,22} + 8 R{5,24} + 8 R{5,25} + 8 R{5,26} + 8 R{6,10}
   + 8 R{6,12} + 8 R{6,16} + 8 R{6,19} + 8 R{6,20} + 8 R{6,22} + 8 R{6,25}
   <= 8
 R2_22: 11 R{0,6} + 11 R{0,8} + 11 R{0,10} + 11 R{0,11} + 11 R{0,15}
   + 10 R{0,16} + 10 R{0,18} + 11 R{0,30} + 11 R{1,25} + 10 R{2,22}
   + 11 R{3,7} + 4 R{3,10} + 11 R{3,19} + 3 R{4,8} + 3 R{4,25} + 3 R{4,35}
   + 4 R{5,4} + 11 R{5,9} + 11 R{5,11} + 11 R{5,12} + 4 R{5,14}
   + 11 R{5,17} + 11 R{5,21} + 4 R{5,23} + 4 R{5,24} + 11 R{5,25}
   + 4 R{5,26} + 11 R{6,3} + 11 R{6,4} + 11 R{6,5} + 10 R{6,7} + 10 R{6,8}
   + 10 R{6,9} + 4 R{6,10} + 11 R{6,12} + 11 R{6,15} + 10 R{6,17}
   + 11 R{6,18} + 11 R{6,20} + 4 R{6,22} + 4 R{6,23} + 4 R{6,25}
   + 11 R{6,26} <= 11
 R2_23: 14 R{0,5} + 14 R{0,29} + 14 R{0,33} + 14 R{2,31} + 6 R{2,33}
   + 14 R{2,35} + 14 R{2,38} + 6 R{2,41} + 14 R{3,6} + 14 R{3,11}
   + 14 R{3,21} + 14 R{3,23} + 14 R{3,26} + 14 R{3,29} + 14 R{3,30}
   + 14 R{4,10} + 14 R{4,12} + 14 R{4,18} + 9 R{4,19} + 14 R{4,20}
   + 6 R{4,21} + 14 R{4,28} + 14 R{4,31} + 14 R{4,32} + 14 R{4,34}
   + 14 R{4,36} + 14 R{6,5} + 14 R{6,6} + 14 R{6,12} + 14 R{6,17}
   + 14 R{6,18} + 14 R{6,20} + 14 R{6,21} + 14 R{6,23} + 14 R{6,24}
   + 14 R{6,26} <= 14
 R2_24: 7 R{0,10} + 7 R{0,20} + 7 R{0,22} + 7 R{0,27} + 7 R{0,34}
   + 7 R{1,8} + 7 R{1,10} + 7 R{1,11} + 4 R{1,13} + 7 R{1,14} + 6 R{1,15}
   + 7 R{1,16} + 7 R{1,17} + 7 R{1,19} + 7 R{1,23} + 7 R{1,24} + 7 R{2,31}
   + 7 R{2,32} + 7 R{2,34} + 7 R{2,41} + 7 R{3,0} + 6 R{3,8} + 7 R{3,12}
   + 7 R{3,13} + 7 R{3,17} + 7 R{3,18} + 7 R{3,28} + 7 R{3,29} + 7 R{3,30}
   + 7 R{3,34} + 7 R{3,36} + 5 R{4,7} + 7 R{4,15} + 7 R{4,18} + 7 R{4,25}
   + 5 R{4,26} + 5 R{4,35} + 7 R{5,1} + 7 R{5,2} + 7 R{5,3} + 7 R{5,4}
   + 6 R{5,5} + 7 R{5,6} + 7 R{5,7} + 7 R{5,9} + 6 R{5,11} + 7 R{5,13}
   + 7 R{5,14} + 7 R{5,15} + 7 R{5,16} + 6 R{5,17} + 7 R{5,21} + 7 R{5,22}
   + 7 R{5,23} + 6 R{5,26} <= 7
 R2_25: 12 R{0,1} + 12 R{0,2} + 12 R{0,3} + 12 R{0,5} + 12 R{0,7}
   + 12 R{0,9} + 12 R{0,14} + 12 R{0,15} + 12 R{0,19} + 12 R{0,20}
   + 12 R{0,22} + 12 R{0,28} + 12 R{0,29} + 12 R{0,30} + 12 R{0,31}
   + 12 R{0,33} + 12 R{1,21} + 5 R{2,7} + 5 R{2,8} + 12 R{2,16}
   + 12 R{2,18} + 12 R{2,22} + 12 R{2,27} + 12 R{2,30} + 12 R{2,32}
   + 12 R{2,33} + 5 R{2,39} + 12 R{2,41} + 12 R{5,4} + 12 R{5,6}
   + 12 R{5,23} + 4 R{5,25} + 12 R{6,0} + 12 R{6,1} + 12 R{6,4} + 12 R{6,5}
   + 12 R{6,7} + 12 R{6,8} + 12 R{6,11} + 12 R{6,15} + 12 R{6,17}
   + 12 R{6,23} + 12 R{6,24} + 12 R{6,26} <= 12
 R2_26: 6 R{0,7} + 6 R{0,13} + 6 R{0,15} + 6 R{0,16} + 6 R{0,18}
   + 6 R{0,20} + 6 R{0,25} + 5 R{0,27} + 6 R{0,28} + 6 R{0,29} + 6 R{0,30}
   + 6 R{0,31} + 6 R{1,5} + 6 R{1,10} + 6 R{1,13} + 6 R{1,16} + 6 R{1,22}
   + 6 R{2,11} + 6 R{2,18} + 6 R{2,24} + 6 R{3,12} + 6 R{3,29} + 6 R{4,2}
   + 6 R{4,3} + 6 R{4,4} + 6 R{4,8} + 6 R{4,9} + 6 R{4,13} + 6 R{4,15}
   + 6 R{4,22} + 6 R{4,23} + 6 R{4,25} + 6 R{4,27} + 6 R{4,28} + 6 R{4,29}
   + 6 R{4,30} + 6 R{4,32} + 6 R{4,33} + 5 R{4,34} + 6 R{4,35} + 6 R{4,36}
   + 6 R{5,16} + 6 R{6,0} + 6 R{6,4} + 6 R{6,5} + 6 R{6,15} + 6 R{6,16}
   + 6 R{6,17} + 6 R{6,21} + 6 R{6,23} + 6 R{6,25} + 6 R{6,26} <= 6
 R2_27: <= 0
 R2_28: 7 R{0,24} + 7 R{0,25} + 7 R{1,4} + 7 R{1,9} + 7 R{1,11} + 7 R{1,13}
   + 7 R{1,18} + 7 R{1,20} + 7 R{1,21} + 7 R{1,24} + 7 R{1,25} + 7 R{2,1}
   + 7 R{2,2} + 7 R{2,3} + 7 R{2,4} + 7 R{2,5} + 7 R{2,6} + 7 R{2,7}
   + 7 R{2,8} + 7 R{2,11} + 7 R{2,12} + 7 R{2,13} + 7 R{2,14} + 7 R{2,17}
   + 7 R{2,19} + 7 R{2,20} + 7 R{2,21} + 7 R{2,22} + 7 R{2,23} + 7 R{2,24}
   + 7 R{2,25} + 7 R{2,26} + 7 R{2,28} + 7 R{2,29} + 7 R{2,30} + 7 R{2,31}
   + 7 R{2,32} + 7 R{2,33} + 7 R{2,34} + 7 R{2,35} + 7 R{2,36} + 7 R{2,38}
   + 7 R{2,39} + 7 R{2,40} + 7 R{2,41} + 7 R{3,5} + 7 R{3,6} + 7 R{3,9}
   + 7 R{3,12} + 7 R{3,22} + 7 R{3,30} + 7 R{4,24} + 7 R{4,30} + 7 R{6,13}
   <= 7
 R2_29: <= 0
 R2_30: <= 0
 R2_31: 5 R{0,2} + 5 R{0,3} + 5 R{0,7} + 5 R{0,16} + 5 R{0,18} + 5 R{0,20}
   + 5 R{0,24} + 5 R{0,26} + 5 R{0,27} + 5 R{0,28} + 5 R{0,29} + 5 R{0,30}
   + 5 R{0,31} + 5 R{0,32} + 5 R{0,35} + 5 R{1,5} + 5 R{1,7} + 5 R{1,13}
   + 5 R{1,15} + 5 R{1,20} + 5 R{2,7} + 5 R{2,15} + 5 R{2,17} + 5 R{2,21}
   + 5 R{2,24} + 5 R{2,37} + 5 R{2,39} + 5 R{3,2} + 5 R{3,3} + 5 R{3,4}
   + 5 R{3,8} + 5 R{3,17} + 5 R{3,18} + 5 R{3,19} + 5 R{3,20} + 5 R{3,21}
   + 5 R{3,23} + 5 R{3,25} + 5 R{3,28} + 5 R{3,32} + 5 R{3,35} + 5 R{4,0}
   + 5 R{4,3} + 5 R{4,4} + 5 R{4,8} + 5 R{4,9} + 5 R{4,10} + 5 R{4,11}
   + 5 R{4,12} + 5 R{4,13} + 5 R{4,15} + 5 R{4,19} + 5 R{4,20} + 5 R{4,21}
   + 5 R{4,22} + 5 R{4,23} + 5 R{4,27} + 5 R{4,28} + 5 R{4,29} + 5 R{4,31}
   + 5 R{4,33} + 5 R{4,34} + 5 R{5,5} + 5 R{5,11} + 5 R{5,14} + 5 R{5,17}
   + 5 R{5,18} + 5 R{5,19} + 5 R{5,22} + 5 R{5,25} + 5 R{5,26} + 5 R{6,4}
   + 5 R{6,5} + 5 R{6,15} + 5 R{6,17} + 5 R{6,20} + 5 R{6,23} + 5 R{6,26}
   <= 5
 R2_32: 10 R{0,8} + 10 R{0,12} + 9 R{0,25} + 10 R{0,32} + 10 R{1,9}
   + 10 R{1,14} + 10 R{2,8} + 10 R{2,13} + 10 R{2,17} + 5 R{2,18}
   + 10 R{2,19} + 10 R{2,20} + 10 R{2,22} + 10 R{2,23} + 10 R{2,25}
   + 10 R{2,26} + 10 R{2,27} + 10 R{2,28} + 10 R{2,30} + 10 R{2,32}
   + 10 R{2,33} + 10 R{2,35} + 10 R{2,36} + 10 R{2,38} + 10 R{2,39}
   + 10 R{2,40} + 10 R{2,41} + 10 R{3,9} + 10 R{3,11} + 10 R{3,26}
   + 10 R{3,29} + 10 R{3,34} + 10 R{4,2} + 10 R{4,3} + 10 R{4,4}
   + 10 R{4,6} + 10 R{4,7} + 10 R{4,8} + 10 R{4,10} + 10 R{4,12}
   + 10 R{4,15} + 10 R{4,16} + 8 R{4,18} + 8 R{4,19} + 10 R{4,20}
   + 10 R{4,21} + 10 R{4,22} + 10 R{4,23} + 10 R{4,25} + 9 R{4,29}
   + 10 R{4,31} + 10 R{4,33} + 10 R{4,34} + 9 R{4,35} + 6 R{5,14}
   + 10 R{6,15} <= 10
 R2_33: 12 R{0,34} + 12 R{1,17} + 10 R{2,1} + 10 R{2,2} + 10 R{2,3}
   + 10 R{2,4} + 10 R{2,5} + 12 R{2,10} + 10 R{2,11} + 10 R{2,13}
   + 10 R{2,15} + 10 R{2,17} + 12 R{2,19} + 12 R{2,20} + 12 R{2,23}
   + 12 R{2,25} + 10 R{2,26} + 12 R{2,28} + 10 R{2,35} + 12 R{2,37}
   + 10 R{2,38} + 12 R{2,40} + 12 R{3,0} + 12 R{3,4} + 12 R{3,5}
   + 12 R{3,6} + 12 R{3,9} + 12 R{3,11} + 12 R{3,12} + 12 R{3,13}
   + 12 R{3,16} + 12 R{3,20} + 12 R{3,21} + 12 R{3,22} + 12 R{3,23}
   + 12 R{3,25} + 12 R{3,27} + 12 R{3,28} + 12 R{3,29} + 12 R{3,30}
   + 12 R{3,31} + 12 R{3,32} + 12 R{3,33} + 12 R{3,34} + 12 R{3,35}
   + 12 R{3,36} + 12 R{4,0} + 10 R{4,3} + 10 R{4,4} + 12 R{4,5} + 10 R{4,6}
   + 10 R{4,7} + 12 R{4,8} + 10 R{4,9} + 10 R{4,10} + 10 R{4,11}
   + 10 R{4,12} + 12 R{4,13} + 10 R{4,14} + 12 R{4,15} + 10 R{4,18}
   + 10 R{4,19} + 10 R{4,21} + 12 R{4,22} + 10 R{4,23} + 12 R{4,25}
   + 12 R{4,26} + 12 R{4,27} + 10 R{4,28} + 10 R{4,31} + 10 R{4,32}
   + 12 R{4,33} + 10 R{4,34} + 12 R{4,35} + 10 R{4,36} + 12 R{6,14} <= 12
 R2_34: <= 0
 R2_35: 15 R{0,2} + 15 R{0,3} + 15 R{0,5} + 15 R{0,7} + 15 R{0,20}
   + 15 R{0,22} + 15 R{0,23} + 15 R{0,26} + 15 R{0,27} + 15 R{0,28}
   + 15 R{0,29} + 15 R{0,31} + 15 R{0,32} + 15 R{0,33} + 15 R{0,35}
   + 15 R{1,22} + 15 R{1,23} + 15 R{2,9} + 15 R{2,18} + 15 R{2,28}
   + 15 R{2,37} + 15 R{2,40} + 15 R{3,0} + 15 R{3,2} + 15 R{3,3}
   + 15 R{3,4} + 3 R{3,5} + 15 R{3,6} + 15 R{3,11} + 15 R{3,12}
   + 15 R{3,13} + 4 R{3,14} + 15 R{3,16} + 15 R{3,18} + 15 R{3,20}
   + 15 R{3,21} + 15 R{3,22} + 15 R{3,23} + 15 R{3,24} + 15 R{3,25}
   + 15 R{3,26} + 15 R{3,27} + 15 R{3,28} + 15 R{3,29} + 15 R{3,30}
   + 15 R{3,31} + 15 R{3,32} + 15 R{3,33} + 15 R{3,34} + 15 R{3,35}
   + 15 R{3,36} <= 15
 R2_36: 15 R{0,2} + 15 R{0,3} + 15 R{0,5} + 15 R{0,9} + 15 R{0,15}
   + 15 R{0,16} + 15 R{0,18} + 15 R{0,24} + 15 R{0,26} + 15 R{0,29}
   + 15 R{0,30} + 15 R{0,31} + 15 R{0,33} + 15 R{0,34} + 15 R{0,35}
   + 15 R{1,3} + 15 R{1,4} + 15 R{1,8} + 15 R{1,10} + 15 R{1,11}
   + 15 R{1,12} + 15 R{1,14} + 15 R{1,15} + 15 R{1,16} + 15 R{1,17}
   + 15 R{1,18} + 15 R{1,19} + 15 R{1,20} + 15 R{1,21} + 15 R{1,22}
   + 15 R{1,23} + 15 R{1,24} + 15 R{1,25} + 15 R{2,16} + 15 R{2,27}
   + 15 R{4,2} + 15 R{4,3} + 15 R{4,8} + 15 R{4,13} + 15 R{4,14}
   + 15 R{4,21} + 15 R{4,22} + 15 R{4,23} + 15 R{4,25} + 15 R{4,29}
   + 15 R{4,32} + 15 R{4,33} + 15 R{4,34} + 15 R{4,35} + 15 R{4,36}
   + 15 R{5,13} + 6 R{5,26} + 15 R{6,20} + 15 R{6,22} + 15 R{6,26} <= 16
 R2_37: 6 R{0,9} + 6 R{0,10} + 6 R{0,14} + 5 R{0,15} + 6 R{0,16}
   + 6 R{0,24} + 6 R{0,26} + 6 R{0,30} + 6 R{0,31} + 6 R{0,32} + 6 R{1,7}
   + 6 R{1,8} + 6 R{2,1} + 5 R{2,2} + 5 R{2,3} + 6 R{2,4} + 6 R{2,5}
   + 6 R{2,7} + 5 R{2,9} + 6 R{2,10} + 5 R{2,13} + 6 R{2,15} + 6 R{2,19}
   + 6 R{2,20} + 5 R{2,22} + 6 R{2,24} + 6 R{2,25} + 5 R{2,26} + 5 R{2,28}
   + 5 R{2,30} + 6 R{2,32} + 6 R{2,33} + 5 R{2,35} + 6 R{2,36} + 5 R{2,38}
   + 6 R{2,39} + 6 R{3,5} + 6 R{3,6} + 6 R{3,11} + 6 R{3,13} + 6 R{3,23}
   + 6 R{3,25} + 6 R{3,27} + 6 R{4,5} + 6 R{4,8} + 6 R{4,12} + 6 R{4,13}
   + 6 R{4,20} + 6 R{4,25} + 5 R{4,26} + 6 R{4,27} + 5 R{4,29} + 6 R{4,31}
   + 6 R{4,36} + 6 R{5,3} + 6 R{5,7} + 6 R{5,8} + 6 R{5,22} + 6 R{5,26}
   + 6 R{6,11} + 6 R{6,12} + 6 R{6,22} + 5 R{6,23} + 6 R{6,26} <= 6
 R2_38: 8 R{0,1} + 8 R{0,2} + 8 R{0,3} + 8 R{0,4} + 8 R{0,5} + 7 R{0,6}
   + 2 R{0,7} + 7 R{0,8} + 7 R{0,11} + 8 R{0,14} + 8 R{0,17} + 8 R{0,19}
   + 8 R{0,23} + 8 R{0,29} + 8 R{0,31} + 8 R{0,33} + 8 R{1,14} + 8 R{2,2}
   + 8 R{2,3} + 8 R{2,4} + 8 R{2,5} + 8 R{2,9} + 8 R{2,11} + 8 R{2,13}
   + 8 R{2,17} + 8 R{2,18} + 8 R{2,19} + 8 R{2,20} + 8 R{2,22} + 8 R{2,23}
   + 8 R{2,26} + 8 R{2,28} + 8 R{2,30} + 8 R{2,35} + 8 R{2,38} + 8 R{2,40}
   + 8 R{3,5} + 8 R{3,6} + 8 R{3,9} + 8 R{3,11} + 8 R{3,16} + 8 R{3,21}
   + 8 R{3,22} + 8 R{3,23} + 8 R{3,25} + 8 R{3,27} + 8 R{3,30} + 8 R{3,31}
   + 8 R{3,33} + 8 R{4,12} + 8 R{4,14} + 8 R{4,20} + 8 R{4,32} + 8 R{4,36}
   + 8 R{6,0} + 8 R{6,1} + 8 R{6,7} + 8 R{6,16} + 8 R{6,19} <= 8
 R2_39: <= 0
 R2_40: 14 R{0,5} + 14 R{0,9} + 14 R{0,12} + 14 R{0,13} + 14 R{0,19}
   + 14 R{0,21} + 14 R{0,23} + 14 R{0,25} + 14 R{0,33} + 14 R{0,34}
   + 14 R{1,1} + 14 R{1,2} + 14 R{1,3} + 14 R{1,5} + 14 R{1,10}
   + 14 R{1,11} + 14 R{1,13} + 14 R{1,14} + 14 R{1,16} + 14 R{1,17}
   + 14 R{1,18} + 14 R{1,19} + 14 R{1,20} + 14 R{1,21} + 14 R{1,22}
   + 14 R{1,23} + 14 R{1,25} + 14 R{2,12} + 14 R{2,29} + 14 R{2,30}
   + 14 R{2,31} + 14 R{2,32} + 14 R{2,34} + 14 R{3,6} + 14 R{3,9}
   + 14 R{3,21} + 14 R{3,22} + 14 R{3,23} + 14 R{3,25} + 14 R{3,27}
   + 14 R{3,30} + 14 R{3,33} + 14 R{4,16} + 14 R{4,17} + 14 R{4,24}
   + 14 R{4,30} + 14 R{4,36} + 14 R{5,20} + 14 R{6,10} + 14 R{6,13}
   + 14 R{6,16} + 14 R{6,19} + 14 R{6,21} + 14 R{6,24} + 14 R{6,25} <= 14
 R2_41: 5 R{0,4} + 5 R{0,16} + 5 R{0,18} + 5 R{0,24} + 5 R{2,1} + 5 R{2,2}
   + 5 R{2,3} + 5 R{2,4} + 5 R{2,5} + 5 R{2,6} + 5 R{2,7} + 5 R{2,8}
   + 5 R{2,11} + 5 R{2,12} + 5 R{2,13} + 5 R{2,14} + 5 R{2,15} + 5 R{2,16}
   + 5 R{2,17} + 5 R{2,22} + 5 R{2,24} + 5 R{2,26} + 5 R{2,27} + 5 R{2,29}
   + 5 R{2,30} + 5 R{2,31} + 5 R{2,32} + 5 R{2,33} + 5 R{2,34} + 5 R{2,35}
   + 5 R{2,36} + 5 R{2,38} + 5 R{2,39} + 5 R{2,41} + 5 R{3,15} + 5 R{4,3}
   + 5 R{4,4} + 5 R{4,6} + 5 R{4,7} + 5 R{4,9} + 5 R{4,10} + 5 R{4,11}
   + 5 R{4,12} + 5 R{4,14} + 5 R{4,18} + 5 R{4,19} + 5 R{4,20} + 5 R{4,21}
   + 5 R{4,23} + 5 R{4,28} + 5 R{4,31} + 5 R{4,32} + 5 R{4,34} + 5 R{4,36}
   + 5 R{6,0} + 5 R{6,1} + 5 R{6,6} + 5 R{6,7} + 5 R{6,8} + 5 R{6,9}
   + 5 R{6,17} + 5 R{6,21} + 5 R{6,24} <= 5
 R2_42: 4 R{0,6} + 4 R{0,8} + 4 R{0,10} + 4 R{0,11} + 4 R{0,18} + 4 R{0,24}
   + 4 R{0,33} + 4 R{1,8} + 4 R{1,15} + 4 R{1,24} + 4 R{2,7} + 4 R{2,8}
   + 4 R{2,10} + 4 R{2,11} + 4 R{2,16} + 4 R{2,17} + 4 R{2,18} + 4 R{2,24}
   + 4 R{2,27} + 4 R{2,33} + 4 R{2,39} + 4 R{2,40} + 4 R{2,41} + 4 R{3,8}
   + 4 R{3,11} + 4 R{3,12} + 4 R{3,20} + 4 R{3,21} + 4 R{3,24} + 4 R{3,25}
   + 4 R{3,31} + 4 R{3,32} + 4 R{3,35} + 4 R{4,9} + 4 R{4,10} + 4 R{4,11}
   + 4 R{4,18} + 2 R{4,19} + 4 R{4,21} + 4 R{4,22} + 4 R{4,28} + 4 R{4,31}
   + 4 R{4,32} + 4 R{4,33} + 4 R{4,34} + 4 R{4,36} + 4 R{5,1} + 4 R{5,2}
   + 4 R{5,3} + 4 R{5,4} + 4 R{5,5} + 4 R{5,6} + 4 R{5,8} + 4 R{5,9}
   + 4 R{5,10} + 4 R{5,11} + 4 R{5,13} + 4 R{5,14} + 4 R{5,15} + 4 R{5,17}
   + 4 R{5,18} + 4 R{5,19} + 4 R{5,21} + 4 R{5,23} + R{5,24} + 4 R{5,25}
   + 4 R{5,26} <= 4
 R2_43: <= 0
 R2_44: 12 R{0,10} + 12 R{0,15} + 12 R{0,16} + 12 R{0,17} + 12 R{0,18}
   + 12 R{0,24} + 12 R{0,26} + 12 R{0,28} + 12 R{0,30} + 12 R{0,32}
   + 12 R{0,35} + 12 R{2,18} + 12 R{2,24} + 12 R{3,14} + 10 R{3,18}
   + 10 R{3,19} + 12 R{3,24} + 12 R{3,28} + 12 R{3,32} + 12 R{5,1}
   + 12 R{5,2} + 12 R{5,3} + 12 R{5,9} + 12 R{5,10} + 12 R{5,11}
   + 12 R{5,12} + 12 R{5,13} + 12 R{5,14} + 12 R{5,15} + 12 R{5,17}
   + 12 R{5,18} + 12 R{5,19} + 12 R{5,20} + 12 R{5,21} + 12 R{5,22}
   + 12 R{5,23} + 7 R{5,24} + 12 R{5,25} + 12 R{5,26} + 12 R{6,4}
   + 12 R{6,5} + 12 R{6,6} + 12 R{6,10} + 12 R{6,12} + 12 R{6,20}
   + 7 R{6,21} + 7 R{6,22} + 12 R{6,25} <= 12
 R2_45: 6 R{0,2} + 6 R{0,3} + 6 R{0,5} + 6 R{0,7} + 6 R{0,15} + 6 R{0,20}
   + 6 R{0,23} + 6 R{0,26} + 6 R{0,27} + 6 R{0,28} + 6 R{0,29} + 6 R{0,30}
   + 6 R{0,31} + 6 R{0,32} + 6 R{0,33} + 6 R{0,35} + 6 R{2,1} + 6 R{2,2}
   + 6 R{2,5} + 6 R{2,6} + 6 R{2,7} + 6 R{2,8} + 6 R{2,11} + 6 R{2,12}
   + 6 R{2,14} + 6 R{2,16} + 6 R{2,17} + 6 R{2,18} + 6 R{2,29} + 6 R{2,31}
   + 6 R{2,33} + 6 R{2,39} + 6 R{2,41} + 6 R{3,16} + 6 R{4,3} + 6 R{4,4}
   + 6 R{4,6} + 6 R{4,8} + 6 R{4,9} + 6 R{4,10} + 6 R{4,11} + 6 R{4,12}
   + 6 R{4,14} + 6 R{4,15} + 6 R{4,18} + 6 R{4,19} + 6 R{4,21} + 6 R{4,22}
   + 6 R{4,33} + 6 R{4,35} + 6 R{6,8} + 6 R{6,9} + 6 R{6,14} <= 6
 R2_46: 6 R{0,8} + 6 R{0,11} + 6 R{0,22} + 6 R{0,27} + 6 R{2,7} + 6 R{2,8}
   + 6 R{2,15} + 6 R{2,16} + 6 R{2,18} + 6 R{2,20} + 6 R{2,23} + 6 R{2,24}
   + 6 R{2,25} + 6 R{2,27} + 6 R{2,30} + 6 R{2,37} + 6 R{2,40} + 6 R{3,5}
   + 6 R{3,6} + 6 R{3,9} + 6 R{3,13} + 6 R{3,16} + 6 R{3,18} + 6 R{3,19}
   + 6 R{3,21} + 6 R{3,22} + 6 R{3,23} + 6 R{3,25} + 6 R{3,26} + 6 R{3,27}
   + 6 R{3,28} + 6 R{3,29} + 6 R{3,30} + 6 R{3,31} + 6 R{3,32} + 6 R{3,33}
   + 6 R{3,34} + 6 R{3,36} + 6 R{4,13} + 6 R{4,27} + 6 R{6,3} + 6 R{6,4}
   + 6 R{6,5} + 6 R{6,6} + 6 R{6,14} + 6 R{6,15} + 6 R{6,17} + 6 R{6,18}
   + 6 R{6,20} + 6 R{6,22} + 6 R{6,23} + 6 R{6,25} + 6 R{6,26} <= 6
Bounds
Binaries
 R{0,0} R{0,1} R{0,2} R{0,3} R{0,4} R{0,5} R{0,6} R{0,7} R{0,8} R{0,9}
 R{0,10} R{0,11} R{0,12} R{0,13} R{0,14} R{0,15} R{0,16} R{0,17} R{0,18}
 R{0,19} R{0,20} R{0,21} R{0,22} R{0,23} R{0,24} R{0,25} R{0,26} R{0,27}
 R{0,28} R{0,29} R{0,30} R{0,31} R{0,32} R{0,33} R{0,34} R{0,35} R{1,0}
 R{1,1} R{1,2} R{1,3} R{1,4} R{1,5} R{1,6} R{1,7} R{1,8} R{1,9} R{1,10}
 R{1,11} R{1,12} R{1,13} R{1,14} R{1,15} R{1,16} R{1,17} R{1,18} R{1,19}
 R{1,20} R{1,21} R{1,22} R{1,23} R{1,24} R{1,25} R{2,0} R{2,1} R{2,2}
 R{2,3} R{2,4} R{2,5} R{2,6} R{2,7} R{2,8} R{2,9} R{2,10} R{2,11} R{2,12}
 R{2,13} R{2,14} R{2,15} R{2,16} R{2,17} R{2,18} R{2,19} R{2,20} R{2,21}
 R{2,22} R{2,23} R{2,24} R{2,25} R{2,26} R{2,27} R{2,28} R{2,29} R{2,30}
 R{2,31} R{2,32} R{2,33} R{2,34} R{2,35} R{2,36} R{2,37} R{2,38} R{2,39}
 R{2,40} R{2,41} R{3,0} R{3,1} R{3,2} R{3,3} R{3,4} R{3,5} R{3,6} R{3,7}
 R{3,8} R{3,9} R{3,10} R{3,11} R{3,12} R{3,13} R{3,14} R{3,15} R{3,16}
 R{3,17} R{3,18} R{3,19} R{3,20} R{3,21} R{3,22} R{3,23} R{3,24} R{3,25}
 R{3,26} R{3,27} R{3,28} R{3,29} R{3,30} R{3,31} R{3,32} R{3,33} R{3,34}
 R{3,35} R{3,36} R{4,0} R{4,1} R{4,2} R{4,3} R{4,4} R{4,5} R{4,6} R{4,7}
 R{4,8} R{4,9} R{4,10} R{4,11} R{4,12} R{4,13} R{4,14} R{4,15} R{4,16}
 R{4,17} R{4,18} R{4,19} R{4,20} R{4,21} R{4,22} R{4,23} R{4,24} R{4,25}
 R{4,26} R{4,27} R{4,28} R{4,29} R{4,30} R{4,31} R{4,32} R{4,33} R{4,34}
 R{4,35} R{4,36} R{5,0} R{5,1} R{5,2} R{5,3} R{5,4} R{5,5} R{5,6} R{5,7}
 R{5,8} R{5,9} R{5,10} R{5,11} R{5,12} R{5,13} R{5,14} R{5,15} R{5,16}
 R{5,17} R{5,18} R{5,19} R{5,20} R{5,21} R{5,22} R{5,23} R{5,24} R{5,25}
 R{5,26} R{6,0} R{6,1} R{6,2} R{6,3} R{6,4} R{6,5} R{6,6} R{6,7} R{6,8}
 R{6,9} R{6,10} R{6,11} R{6,12} R{6,13} R{6,14} R{6,15} R{6,16} R{6,17}
 R{6,18} R{6,19} R{6,20} R{6,21} R{6,22} R{6,23} R{6,24} R{6,25} R{6,26}
End
